Gurobi Optimizer version 9.1.2 build v9.1.2rc0 (linux64)
Thread count: 36 physical cores, 72 logical processors, using up to 32 threads
Optimize a model with 12 rows, 57 columns and 590 nonzeros
Model fingerprint: 0xf32eec78
Model has 47 quadratic constraints
Coefficient statistics:
  Matrix range     [2e-05, 3e+00]
  QMatrix range    [1e+00, 1e+00]
  QLMatrix range   [1e+00, 1e+00]
  Objective range  [8e-03, 7e-01]
  Bounds range     [1e+00, 1e+00]
  RHS range        [1e+00, 1e+00]
Presolve removed 9 rows and 0 columns

Continuous model is non-convex -- solving as a MIP.

Presolve removed 9 rows and 0 columns
Presolve time: 0.00s
Presolved: 189 rows, 57 columns, 443 nonzeros
Presolved model has 47 bilinear constraint(s)
Variable types: 57 continuous, 0 integer (0 binary)

Root relaxation: objective -1.743721e+00, 44 iterations, 0.00 seconds

    Nodes    |    Current Node    |     Objective Bounds      |     Work
 Expl Unexpl |  Obj  Depth IntInf | Incumbent    BestBd   Gap | It/Node Time

     0     0   -1.74372    0   38          -   -1.74372      -     -    0s
H    0     0                       0.6147548   -1.74372   384%     -    0s
     0     0   -1.64739    0    1    0.61475   -1.64739   368%     -    0s
H    0     0                      -1.6450460   -1.64739  0.14%     -    0s
     0     0     cutoff    0        -1.64505   -1.64505  0.00%     -    0s

Cutting planes:
  RLT: 25
  BQP: 3

Explored 1 nodes (76 simplex iterations) in 0.01 seconds
Thread count was 32 (of 72 available processors)

Solution count 2: -1.64505 0.614755 
No other solutions better than -1.64505

Optimal solution found (tolerance 1.00e-04)
Best objective -1.645045978473e+00, best bound -1.645045978473e+00, gap 0.0000%

User-callback calls 78, time in user-callback 0.00 sec
Gurobi Optimizer version 9.1.2 build v9.1.2rc0 (linux64)
Thread count: 36 physical cores, 72 logical processors, using up to 32 threads
Optimize a model with 60 rows, 312 columns and 16100 nonzeros
Model fingerprint: 0x28cbebae
Model has 262 quadratic constraints
Coefficient statistics:
  Matrix range     [4e-07, 7e+00]
  QMatrix range    [1e+00, 1e+00]
  QLMatrix range   [1e+00, 1e+00]
  Objective range  [2e-03, 1e+00]
  Bounds range     [1e+00, 1e+00]
  RHS range        [1e+00, 1e+00]
Presolve removed 14 rows and 0 columns

Continuous model is non-convex -- solving as a MIP.

Presolve removed 14 rows and 0 columns
Presolve time: 0.01s
Presolved: 1082 rows, 312 columns, 13760 nonzeros
Presolved model has 262 bilinear constraint(s)
Variable types: 312 continuous, 0 integer (0 binary)

Root relaxation: objective -1.848366e+01, 334 iterations, 0.02 seconds

    Nodes    |    Current Node    |     Objective Bounds      |     Work
 Expl Unexpl |  Obj  Depth IntInf | Incumbent    BestBd   Gap | It/Node Time

     0     0  -18.48366    0  156          -  -18.48366      -     -    0s
     0     0  -17.32368    0  119          -  -17.32368      -     -    0s
     0     0  -17.29689    0  119          -  -17.29689      -     -    0s
     0     0  -17.24245    0  109          -  -17.24245      -     -    0s
     0     0  -17.23922    0  109          -  -17.23922      -     -    0s
     0     0  -17.23189    0  109          -  -17.23189      -     -    0s
     0     0  -17.22788    0  109          -  -17.22788      -     -    0s
     0     0  -17.22297    0  109          -  -17.22297      -     -    0s
     0     0  -17.22200    0  109          -  -17.22200      -     -    0s
     0     0  -17.21992    0  109          -  -17.21992      -     -    0s
     0     0  -17.21886    0  109          -  -17.21886      -     -    0s
     0     0  -17.21808    0  109          -  -17.21808      -     -    0s
     0     0  -17.21754    0  109          -  -17.21754      -     -    0s
     0     0  -17.21652    0  109          -  -17.21652      -     -    0s
     0     0  -17.21587    0  114          -  -17.21587      -     -    0s
     0     0  -17.21578    0  115          -  -17.21578      -     -    0s
     0     2  -17.21578    0  115          -  -17.21578      -     -    0s
* 2052  1986              55     -16.1213987  -16.54555  2.63%  69.3    2s
* 2714  1959              55     -16.1228259  -16.46945  2.15%  68.6    2s
* 2963  1968              85     -16.1234164  -16.46945  2.15%  68.9    2s
* 2964  1968              85     -16.1234164  -16.46945  2.15%  68.9    2s
* 2966  1968              85     -16.1234249  -16.46945  2.15%  68.9    2s
* 4930   931              57     -16.1235112  -16.46945  2.15%  61.7    3s
* 4931   879              57     -16.1235135  -16.46945  2.15%  61.7    3s
* 5410   874              65     -16.1253718  -16.46945  2.13%  58.9    4s
* 5412   826              66     -16.1253721  -16.46945  2.13%  58.9    4s
* 5969  1013              73     -16.1452795  -16.46945  2.01%  55.7    4s
* 6758  1181              59     -16.1453051  -16.46945  2.01%  52.8    4s
* 6762  1181              60     -16.1453220  -16.46945  2.01%  52.8    4s
* 6891  1233              65     -16.1453974  -16.46945  2.01%  52.6    4s
* 6894  1233              65     -16.1454059  -16.46945  2.01%  52.5    4s
* 7070  1295              66     -16.1454150  -16.46945  2.01%  52.2    4s
* 7072  1295              67     -16.1454263  -16.46945  2.01%  52.1    4s
* 8675  1830              64     -16.1456549  -16.46945  2.01%  49.2    4s
* 8677  1830              65     -16.1456554  -16.46945  2.01%  49.2    4s
* 8678  1830              65     -16.1456554  -16.46945  2.01%  49.2    4s
* 8680  1830              64     -16.1456638  -16.46945  2.01%  49.2    4s
  8712  1851  -16.36055   26   43  -16.14566  -16.46945  2.01%  49.1    5s
* 8944  1851              64     -16.1456742  -16.46945  2.01%  48.6    5s
* 9533  1991              56     -16.1458124  -16.46945  2.00%  47.6    5s
* 9719  1918              76     -16.1519374  -16.46945  1.97%  47.4    5s
*11389  1882              69     -16.1559475  -16.46945  1.94%  45.0    5s
*13876  1921              72     -16.1610140  -16.41943  1.60%  42.6    6s
*16083  2197              79     -16.1636295  -16.26471  0.63%  40.7    6s
*19944  2300              61     -16.1636386  -16.23512  0.44%  38.5    7s
*19945  2300              61     -16.1636393  -16.23512  0.44%  38.5    7s
*23261  2284              71     -16.1667532  -16.22357  0.35%  36.7    8s
*23263  2282              72     -16.1667534  -16.22357  0.35%  36.7    8s
*30320  2401              68     -16.1667560  -16.20409  0.23%  33.8    9s
 33281  2511     cutoff   37       -16.16676  -16.19788  0.19%  32.8   10s
*34210  2504              66     -16.1667772  -16.19634  0.18%  32.5   10s
*34516  2450              63     -16.1670373  -16.19634  0.18%  32.3   10s
*34517  2450              63     -16.1670418  -16.19634  0.18%  32.3   10s
*34520  2450              63     -16.1670424  -16.19634  0.18%  32.3   10s
*34582  2382              73     -16.1674687  -16.19634  0.18%  32.3   10s
*34584  2376              74     -16.1674965  -16.19634  0.18%  32.3   10s
*34586  2364              70     -16.1675493  -16.19634  0.18%  32.3   10s
*37796  2397              65     -16.1675685  -16.19061  0.14%  31.3   10s
*37797  2397              65     -16.1675687  -16.19061  0.14%  31.3   10s
*37801  2349              65     -16.1676916  -16.19061  0.14%  31.3   10s
*38247  2053              68     -16.1694559  -16.18978  0.13%  31.2   10s
*43642  1754              67     -16.1695534  -16.18228  0.08%  29.7   11s
*44485  1767              63     -16.1695739  -16.18038  0.07%  29.4   11s
*44488  1765              65     -16.1695788  -16.18038  0.07%  29.4   11s
*44489  1765              65     -16.1695789  -16.18038  0.07%  29.4   11s
*44730  1718              64     -16.1698727  -16.18009  0.06%  29.3   11s
*44979  1718              63     -16.1703937  -16.17995  0.06%  29.2   11s
*47036  1468              65     -16.1704166  -16.17803  0.05%  28.6   12s
*47041  1468              67     -16.1704169  -16.17803  0.05%  28.6   12s
*47047  1468              66     -16.1704171  -16.17803  0.05%  28.6   12s
*47302  1468              64     -16.1705411  -16.17783  0.05%  28.5   12s
*49230  1045              62     -16.1707869  -16.17602  0.03%  27.9   12s
*50560  1074              67     -16.1708047  -16.17380  0.02%  27.6   12s
*50714  1074              63     -16.1708316  -16.17368  0.02%  27.5   12s
*50717  1074              63     -16.1708318  -16.17368  0.02%  27.5   12s
*50747  1074              63     -16.1708807  -16.17368  0.02%  27.5   12s
*50773  1074              70     -16.1708943  -16.17368  0.02%  27.5   12s
*50778  1074              72     -16.1708990  -16.17368  0.02%  27.5   12s

Explored 52981 nodes (1411656 simplex iterations) in 12.93 seconds
Thread count was 32 (of 72 available processors)

Solution count 10: -16.1709 -16.1709 -16.1709 ... -16.1704

Optimal solution found (tolerance 1.00e-04)
Best objective -1.617089896098e+01, best bound -1.617209281911e+01, gap 0.0074%

User-callback calls 107215, time in user-callback 0.03 sec



objective value: -16.170898960984804
objective bound: -16.172092819110247
x_opt: [0.904572015930082, 1.0, 0.0, 0.6891184592383707, 0.0, 0.0, 1.0, 0.0, 0.0, 0.0, 1.0, 0.0, 1.0, 1.0, 0.6622014508944893, 1.0, 0.0, 1.0, 0.0, 0.0, 0.9999457411704138, 0.4791231221667254, 0.0, 0.6417849615141614, 0.0, 0.755481285247619, 0.0, 1.0, 0.0, 0.0, 1.0, 0.8656819795406528, 0.0, 0.4445224797750061, 1.0, 1.0, 0.028153508540927505, 1.0, 0.0, 1.0, 1.0, 0.0, 1.0, 0.0, 0.0, 0.05116508795017682, 0.6509136024195367, 0.2045119244843239, 1.0, 0.16863412950441942]
GUROBI solution time: 12.9251868724823




